units       lj
atom_style  atomic
boundary    p p p

read_data   graphite.data

mass        1 1.0

pair_style  lj/cut 2.5
pair_coeff  1 1 1.0 1.0 2.5

velocity    all create 0.01 87287 loop geom
timestep    0.005
fix         1 all nve
dump        2 all custom 1 dump.deepmd id type x y z fx fy fz
thermo      100
thermo_style custom step temp pe

run         10000  